
(set-option :produce-models true)
(set-option :inline-size-limit 10000)

(declare-const var0 String)

(push 1)
(assert (str.in.re var0 (re.* (re.range "\x01" "\xff"))))
(assert (str.in.re var0 (re.++ (re.*? re.allchar) (re.++ ((_ re.capture 1) (re.++ (re.+ (re.union (re.range "a" "z") (re.union (re.range "A" "Z") (re.union (re.range "0" "9") (str.to.re "_"))))) (re.++ (re.* ((_ re.capture 2) (re.++ (re.union (str.to.re "-") (re.union (str.to.re "+") (re.union (str.to.re ".") (re.union (str.to.re "&") (re.union (str.to.re "#") (re.union (str.to.re "3") (re.union (str.to.re "9") (str.to.re ";")))))))) (re.+ (re.union (re.range "a" "z") (re.union (re.range "A" "Z") (re.union (re.range "0" "9") (str.to.re "_")))))))) (re.++ (str.to.re "@") ((_ re.capture 3) (re.++ (str.to.re "g") (re.++ (str.to.re "m") (re.++ (str.to.re "a") (re.++ (str.to.re "i") (re.++ (str.to.re "l") (re.++ (re.range "\x01" "\xff") (re.++ (str.to.re "c") (re.++ (str.to.re "o") (str.to.re "m")))))))))))))) re.all))))	; match!==null
(assert (not (str.in.re ((_ str.extract 1) var0 (re.++ (re.*? re.allchar) (re.++ ((_ re.capture 1) (re.++ (re.+ (re.union (re.range "a" "z") (re.union (re.range "A" "Z") (re.union (re.range "0" "9") (str.to.re "_"))))) (re.++ (re.* ((_ re.capture 2) (re.++ (re.union (str.to.re "-") (re.union (str.to.re "+") (re.union (str.to.re ".") (re.union (str.to.re "&") (re.union (str.to.re "#") (re.union (str.to.re "3") (re.union (str.to.re "9") (str.to.re ";")))))))) (re.+ (re.union (re.range "a" "z") (re.union (re.range "A" "Z") (re.union (re.range "0" "9") (str.to.re "_")))))))) (re.++ (str.to.re "@") ((_ re.capture 3) (re.++ (str.to.re "g") (re.++ (str.to.re "m") (re.++ (str.to.re "a") (re.++ (str.to.re "i") (re.++ (str.to.re "l") (re.++ (re.range "\x01" "\xff") (re.++ (str.to.re "c") (re.++ (str.to.re "o") (str.to.re "m")))))))))))))) re.all))) (str.to.re "\x00"))))
;match[1]!==null
(assert (str.in.re ((_ str.extract 1) var0 (re.++ (re.*? re.allchar) (re.++ ((_ re.capture 1) (re.++ (re.+ (re.union (re.range "a" "z") (re.union (re.range "A" "Z") (re.union (re.range "0" "9") (str.to.re "_"))))) (re.++ (re.* ((_ re.capture 2) (re.++ (re.union (str.to.re "-") (re.union (str.to.re "+") (re.union (str.to.re ".") (re.union (str.to.re "&") (re.union (str.to.re "#") (re.union (str.to.re "3") (re.union (str.to.re "9") (str.to.re ";")))))))) (re.+ (re.union (re.range "a" "z") (re.union (re.range "A" "Z") (re.union (re.range "0" "9") (str.to.re "_")))))))) (re.++ (str.to.re "@") ((_ re.capture 3) (re.++ (str.to.re "g") (re.++ (str.to.re "m") (re.++ (str.to.re "a") (re.++ (str.to.re "i") (re.++ (str.to.re "l") (re.++ (re.range "\x01" "\xff") (re.++ (str.to.re "c") (re.++ (str.to.re "o") (str.to.re "m")))))))))))))) re.all))) (re.++ re.all(re.+ (re.range "a" "z")) re.all) ))
;/[a-z]+/.test(match[1]) == true
(check-sat)
(get-model)
(pop 1)
(push 1)
(assert (str.in.re var0 (re.* (re.range "\x01" "\xff"))))
(assert (str.in.re var0 (re.++ (re.*? re.allchar) (re.++ ((_ re.capture 1) (re.++ (re.+ (re.union (re.range "a" "z") (re.union (re.range "A" "Z") (re.union (re.range "0" "9") (str.to.re "_"))))) (re.++ (re.* ((_ re.capture 2) (re.++ (re.union (str.to.re "-") (re.union (str.to.re "+") (re.union (str.to.re ".") (re.union (str.to.re "&") (re.union (str.to.re "#") (re.union (str.to.re "3") (re.union (str.to.re "9") (str.to.re ";")))))))) (re.+ (re.union (re.range "a" "z") (re.union (re.range "A" "Z") (re.union (re.range "0" "9") (str.to.re "_")))))))) (re.++ (str.to.re "@") ((_ re.capture 3) (re.++ (str.to.re "g") (re.++ (str.to.re "m") (re.++ (str.to.re "a") (re.++ (str.to.re "i") (re.++ (str.to.re "l") (re.++ (re.range "\x01" "\xff") (re.++ (str.to.re "c") (re.++ (str.to.re "o") (str.to.re "m")))))))))))))) re.all))))	; match!==null
(assert (not (str.in.re ((_ str.extract 1) var0 (re.++ (re.*? re.allchar) (re.++ ((_ re.capture 1) (re.++ (re.+ (re.union (re.range "a" "z") (re.union (re.range "A" "Z") (re.union (re.range "0" "9") (str.to.re "_"))))) (re.++ (re.* ((_ re.capture 2) (re.++ (re.union (str.to.re "-") (re.union (str.to.re "+") (re.union (str.to.re ".") (re.union (str.to.re "&") (re.union (str.to.re "#") (re.union (str.to.re "3") (re.union (str.to.re "9") (str.to.re ";")))))))) (re.+ (re.union (re.range "a" "z") (re.union (re.range "A" "Z") (re.union (re.range "0" "9") (str.to.re "_")))))))) (re.++ (str.to.re "@") ((_ re.capture 3) (re.++ (str.to.re "g") (re.++ (str.to.re "m") (re.++ (str.to.re "a") (re.++ (str.to.re "i") (re.++ (str.to.re "l") (re.++ (re.range "\x01" "\xff") (re.++ (str.to.re "c") (re.++ (str.to.re "o") (str.to.re "m")))))))))))))) re.all))) (str.to.re "\x00"))))	
;match[1]!==null
(assert (not (str.in.re ((_ str.extract 1) var0 (re.++ (re.*? re.allchar) (re.++ ((_ re.capture 1) (re.++ (re.+ (re.union (re.range "a" "z") (re.union (re.range "A" "Z") (re.union (re.range "0" "9") (str.to.re "_"))))) (re.++ (re.* ((_ re.capture 2) (re.++ (re.union (str.to.re "-") (re.union (str.to.re "+") (re.union (str.to.re ".") (re.union (str.to.re "&") (re.union (str.to.re "#") (re.union (str.to.re "3") (re.union (str.to.re "9") (str.to.re ";")))))))) (re.+ (re.union (re.range "a" "z") (re.union (re.range "A" "Z") (re.union (re.range "0" "9") (str.to.re "_")))))))) (re.++ (str.to.re "@") ((_ re.capture 3) (re.++ (str.to.re "g") (re.++ (str.to.re "m") (re.++ (str.to.re "a") (re.++ (str.to.re "i") (re.++ (str.to.re "l") (re.++ (re.range "\x01" "\xff") (re.++ (str.to.re "c") (re.++ (str.to.re "o") (str.to.re "m")))))))))))))) re.all))) (re.++ re.all(re.+ (re.range "a" "z")) re.all) )))
;/[a-z]+/.test(match[1]) == false	
(check-sat)
(get-model)
(pop 1)
(push 1)
(assert (str.in.re var0 (re.* (re.range "\x01" "\xff"))))
(assert (str.in.re var0 (re.++ (re.*? re.allchar) (re.++ ((_ re.capture 1) (re.++ (re.+ (re.union (re.range "a" "z") (re.union (re.range "A" "Z") (re.union (re.range "0" "9") (str.to.re "_"))))) (re.++ (re.* ((_ re.capture 2) (re.++ (re.union (str.to.re "-") (re.union (str.to.re "+") (re.union (str.to.re ".") (re.union (str.to.re "&") (re.union (str.to.re "#") (re.union (str.to.re "3") (re.union (str.to.re "9") (str.to.re ";")))))))) (re.+ (re.union (re.range "a" "z") (re.union (re.range "A" "Z") (re.union (re.range "0" "9") (str.to.re "_")))))))) (re.++ (str.to.re "@") ((_ re.capture 3) (re.++ (str.to.re "g") (re.++ (str.to.re "m") (re.++ (str.to.re "a") (re.++ (str.to.re "i") (re.++ (str.to.re "l") (re.++ (re.range "\x01" "\xff") (re.++ (str.to.re "c") (re.++ (str.to.re "o") (str.to.re "m")))))))))))))) re.all))))	; match!==null
(assert (str.in.re ((_ str.extract 1) var0 (re.++ (re.*? re.allchar) (re.++ ((_ re.capture 1) (re.++ (re.+ (re.union (re.range "a" "z") (re.union (re.range "A" "Z") (re.union (re.range "0" "9") (str.to.re "_"))))) (re.++ (re.* ((_ re.capture 2) (re.++ (re.union (str.to.re "-") (re.union (str.to.re "+") (re.union (str.to.re ".") (re.union (str.to.re "&") (re.union (str.to.re "#") (re.union (str.to.re "3") (re.union (str.to.re "9") (str.to.re ";")))))))) (re.+ (re.union (re.range "a" "z") (re.union (re.range "A" "Z") (re.union (re.range "0" "9") (str.to.re "_")))))))) (re.++ (str.to.re "@") ((_ re.capture 3) (re.++ (str.to.re "g") (re.++ (str.to.re "m") (re.++ (str.to.re "a") (re.++ (str.to.re "i") (re.++ (str.to.re "l") (re.++ (re.range "\x01" "\xff") (re.++ (str.to.re "c") (re.++ (str.to.re "o") (str.to.re "m")))))))))))))) re.all))) (str.to.re "\x00")))
;match[1]==null
(check-sat)
(get-model)
(pop 1)
(push 1)
(assert (str.in.re var0 (re.* (re.range "\x01" "\xff"))))
(assert (not (str.in.re var0 (re.++ (re.*? re.allchar) (re.++ ((_ re.capture 1) (re.++ (re.+ (re.union (re.range "a" "z") (re.union (re.range "A" "Z") (re.union (re.range "0" "9") (str.to.re "_"))))) (re.++ (re.* ((_ re.capture 2) (re.++ (re.union (str.to.re "-") (re.union (str.to.re "+") (re.union (str.to.re ".") (re.union (str.to.re "&") (re.union (str.to.re "#") (re.union (str.to.re "3") (re.union (str.to.re "9") (str.to.re ";")))))))) (re.+ (re.union (re.range "a" "z") (re.union (re.range "A" "Z") (re.union (re.range "0" "9") (str.to.re "_")))))))) (re.++ (str.to.re "@") ((_ re.capture 3) (re.++ (str.to.re "g") (re.++ (str.to.re "m") (re.++ (str.to.re "a") (re.++ (str.to.re "i") (re.++ (str.to.re "l") (re.++ (re.range "\x01" "\xff") (re.++ (str.to.re "c") (re.++ (str.to.re "o") (str.to.re "m")))))))))))))) re.all)))))	; match == null
(check-sat)
(get-model)
(pop 1)
(exit)
